letting numberLocations be  49
letting costs be function (
(0,0) --> 0,
(0,1) --> 85,
(0,2) --> 11,
(0,3) --> 48,
(0,4) --> 78,
(0,5) --> 102,
(0,6) --> 29,
(0,7) --> 36,
(0,8) --> 93,
(0,9) --> 42,
(0,10) --> 57,
(0,11) --> 47,
(0,12) --> 40,
(0,13) --> 50,
(0,14) --> 42,
(0,15) --> 59,
(0,16) --> 51,
(0,17) --> 100,
(0,18) --> 96,
(0,19) --> 113,
(0,20) --> 39,
(0,21) --> 90,
(0,22) --> 52,
(0,23) --> 55,
(0,24) --> 53,
(0,25) --> 46,
(0,26) --> 84,
(0,27) --> 39,
(0,28) --> 109,
(0,29) --> 112,
(0,30) --> 40,
(0,31) --> 36,
(0,32) --> 107,
(0,33) --> 42,
(0,34) --> 14,
(0,35) --> 58,
(0,36) --> 44,
(0,37) --> 39,
(0,38) --> 52,
(0,39) --> 69,
(0,40) --> 20,
(0,41) --> 63,
(0,42) --> 96,
(0,43) --> 46,
(0,44) --> 14,
(0,45) --> 65,
(0,46) --> 54,
(0,47) --> 83,
(0,48) --> 17,
(0,49) --> 46,
(1,0) --> 85,
(1,1) --> 0,
(1,2) --> 80,
(1,3) --> 37,
(1,4) --> 76,
(1,5) --> 35,
(1,6) --> 60,
(1,7) --> 65,
(1,8) --> 14,
(1,9) --> 58,
(1,10) --> 28,
(1,11) --> 50,
(1,12) --> 57,
(1,13) --> 35,
(1,14) --> 47,
(1,15) --> 63,
(1,16) --> 48,
(1,17) --> 21,
(1,18) --> 87,
(1,19) --> 43,
(1,20) --> 55,
(1,21) --> 5,
(1,22) --> 33,
(1,23) --> 31,
(1,24) --> 50,
(1,25) --> 62,
(1,26) --> 72,
(1,27) --> 58,
(1,28) --> 35,
(1,29) --> 40,
(1,30) --> 52,
(1,31) --> 53,
(1,32) --> 35,
(1,33) --> 57,
(1,34) --> 76,
(1,35) --> 27,
(1,36) --> 54,
(1,37) --> 59,
(1,38) --> 33,
(1,39) --> 16,
(1,40) --> 74,
(1,41) --> 22,
(1,42) --> 15,
(1,43) --> 53,
(1,44) --> 74,
(1,45) --> 20,
(1,46) --> 31,
(1,47) --> 70,
(1,48) --> 74,
(1,49) --> 56,
(2,0) --> 11,
(2,1) --> 80,
(2,2) --> 0,
(2,3) --> 44,
(2,4) --> 67,
(2,5) --> 94,
(2,6) --> 21,
(2,7) --> 25,
(2,8) --> 89,
(2,9) --> 32,
(2,10) --> 53,
(2,11) --> 38,
(2,12) --> 30,
(2,13) --> 45,
(2,14) --> 35,
(2,15) --> 63,
(2,16) --> 42,
(2,17) --> 97,
(2,18) --> 85,
(2,19) --> 105,
(2,20) --> 30,
(2,21) --> 85,
(2,22) --> 47,
(2,23) --> 50,
(2,24) --> 43,
(2,25) --> 36,
(2,26) --> 73,
(2,27) --> 30,
(2,28) --> 102,
(2,29) --> 104,
(2,30) --> 31,
(2,31) --> 28,
(2,32) --> 99,
(2,33) --> 32,
(2,34) --> 4,
(2,35) --> 54,
(2,36) --> 34,
(2,37) --> 29,
(2,38) --> 47,
(2,39) --> 64,
(2,40) --> 9,
(2,41) --> 58,
(2,42) --> 92,
(2,43) --> 36,
(2,44) --> 6,
(2,45) --> 60,
(2,46) --> 49,
(2,47) --> 72,
(2,48) --> 7,
(2,49) --> 36,
(3,0) --> 48,
(3,1) --> 37,
(3,2) --> 44,
(3,3) --> 0,
(3,4) --> 64,
(3,5) --> 59,
(3,6) --> 25,
(3,7) --> 34,
(3,8) --> 45,
(3,9) --> 30,
(3,10) --> 9,
(3,11) --> 25,
(3,12) --> 28,
(3,13) --> 1,
(3,14) --> 16,
(3,15) --> 44,
(3,16) --> 25,
(3,17) --> 53,
(3,18) --> 81,
(3,19) --> 69,
(3,20) --> 25,
(3,21) --> 41,
(3,22) --> 5,
(3,23) --> 6,
(3,24) --> 30,
(3,25) --> 36,
(3,26) --> 65,
(3,27) --> 28,
(3,28) --> 64,
(3,29) --> 68,
(3,30) --> 21,
(3,31) --> 19,
(3,32) --> 62,
(3,33) --> 29,
(3,34) --> 40,
(3,35) --> 10,
(3,36) --> 26,
(3,37) --> 29,
(3,38) --> 5,
(3,39) --> 21,
(3,40) --> 39,
(3,41) --> 15,
(3,42) --> 48,
(3,43) --> 27,
(3,44) --> 38,
(3,45) --> 17,
(3,46) --> 7,
(3,47) --> 63,
(3,48) --> 39,
(3,49) --> 30,
(4,0) --> 78,
(4,1) --> 76,
(4,2) --> 67,
(4,3) --> 64,
(4,4) --> 0,
(4,5) --> 60,
(4,6) --> 56,
(4,7) --> 43,
(4,8) --> 89,
(4,9) --> 40,
(4,10) --> 67,
(4,11) --> 41,
(4,12) --> 43,
(4,13) --> 64,
(4,14) --> 51,
(4,15) --> 108,
(4,16) --> 39,
(4,17) --> 97,
(4,18) --> 18,
(4,19) --> 68,
(4,20) --> 46,
(4,21) --> 80,
(4,22) --> 62,
(4,23) --> 64,
(4,24) --> 35,
(4,25) --> 34,
(4,26) --> 8,
(4,27) --> 43,
(4,28) --> 70,
(4,29) --> 69,
(4,30) --> 48,
(4,31) --> 53,
(4,32) --> 67,
(4,33) --> 41,
(4,34) --> 64,
(4,35) --> 68,
(4,36) --> 41,
(4,37) --> 43,
(4,38) --> 62,
(4,39) --> 70,
(4,40) --> 58,
(4,41) --> 65,
(4,42) --> 91,
(4,43) --> 39,
(4,44) --> 66,
(4,45) --> 66,
(4,46) --> 61,
(4,47) --> 9,
(4,48) --> 62,
(4,49) --> 37,
(5,0) --> 102,
(5,1) --> 35,
(5,2) --> 94,
(5,3) --> 59,
(5,4) --> 60,
(5,5) --> 0,
(5,6) --> 73,
(5,7) --> 71,
(5,8) --> 46,
(5,9) --> 64,
(5,10) --> 53,
(5,11) --> 57,
(5,12) --> 65,
(5,13) --> 58,
(5,14) --> 60,
(5,15) --> 96,
(5,16) --> 52,
(5,17) --> 50,
(5,18) --> 64,
(5,19) --> 11,
(5,20) --> 64,
(5,21) --> 37,
(5,22) --> 54,
(5,23) --> 53,
(5,24) --> 52,
(5,25) --> 64,
(5,26) --> 53,
(5,27) --> 65,
(5,28) --> 10,
(5,29) --> 11,
(5,30) --> 63,
(5,31) --> 66,
(5,32) --> 7,
(5,33) --> 63,
(5,34) --> 90,
(5,35) --> 52,
(5,36) --> 60,
(5,37) --> 66,
(5,38) --> 54,
(5,39) --> 45,
(5,40) --> 86,
(5,41) --> 46,
(5,42) --> 45,
(5,43) --> 59,
(5,44) --> 89,
(5,45) --> 45,
(5,46) --> 52,
(5,47) --> 51,
(5,48) --> 87,
(5,49) --> 60,
(6,0) --> 29,
(6,1) --> 60,
(6,2) --> 21,
(6,3) --> 25,
(6,4) --> 56,
(6,5) --> 73,
(6,6) --> 0,
(6,7) --> 14,
(6,8) --> 69,
(6,9) --> 16,
(6,10) --> 33,
(6,11) --> 18,
(6,12) --> 13,
(6,13) --> 26,
(6,14) --> 13,
(6,15) --> 56,
(6,16) --> 23,
(6,17) --> 77,
(6,18) --> 73,
(6,19) --> 84,
(6,20) --> 11,
(6,21) --> 64,
(6,22) --> 27,
(6,23) --> 30,
(6,24) --> 25,
(6,25) --> 22,
(6,26) --> 60,
(6,27) --> 12,
(6,28) --> 81,
(6,29) --> 83,
(6,30) --> 11,
(6,31) --> 7,
(6,32) --> 78,
(6,33) --> 15,
(6,34) --> 17,
(6,35) --> 34,
(6,36) --> 16,
(6,37) --> 13,
(6,38) --> 27,
(6,39) --> 44,
(6,40) --> 14,
(6,41) --> 38,
(6,42) --> 72,
(6,43) --> 18,
(6,44) --> 16,
(6,45) --> 40,
(6,46) --> 29,
(6,47) --> 58,
(6,48) --> 15,
(6,49) --> 19,
(7,0) --> 36,
(7,1) --> 65,
(7,2) --> 25,
(7,3) --> 34,
(7,4) --> 43,
(7,5) --> 71,
(7,6) --> 14,
(7,7) --> 0,
(7,8) --> 76,
(7,9) --> 8,
(7,10) --> 42,
(7,11) --> 15,
(7,12) --> 8,
(7,13) --> 35,
(7,14) --> 19,
(7,15) --> 70,
(7,16) --> 19,
(7,17) --> 85,
(7,18) --> 61,
(7,19) --> 82,
(7,20) --> 10,
(7,21) --> 70,
(7,22) --> 35,
(7,23) --> 38,
(7,24) --> 19,
(7,25) --> 10,
(7,26) --> 48,
(7,27) --> 7,
(7,28) --> 80,
(7,29) --> 82,
(7,30) --> 14,
(7,31) --> 16,
(7,32) --> 77,
(7,33) --> 9,
(7,34) --> 22,
(7,35) --> 43,
(7,36) --> 12,
(7,37) --> 6,
(7,38) --> 35,
(7,39) --> 51,
(7,40) --> 16,
(7,41) --> 44,
(7,42) --> 79,
(7,43) --> 13,
(7,44) --> 23,
(7,45) --> 47,
(7,46) --> 36,
(7,47) --> 47,
(7,48) --> 19,
(7,49) --> 11,
(8,0) --> 93,
(8,1) --> 14,
(8,2) --> 89,
(8,3) --> 45,
(8,4) --> 89,
(8,5) --> 46,
(8,6) --> 69,
(8,7) --> 76,
(8,8) --> 0,
(8,9) --> 70,
(8,10) --> 36,
(8,11) --> 62,
(8,12) --> 69,
(8,13) --> 44,
(8,14) --> 58,
(8,15) --> 61,
(8,16) --> 60,
(8,17) --> 8,
(8,18) --> 101,
(8,19) --> 51,
(8,20) --> 66,
(8,21) --> 10,
(8,22) --> 42,
(8,23) --> 40,
(8,24) --> 63,
(8,25) --> 74,
(8,26) --> 86,
(8,27) --> 69,
(8,28) --> 43,
(8,29) --> 48,
(8,30) --> 63,
(8,31) --> 63,
(8,32) --> 43,
(8,33) --> 69,
(8,34) --> 85,
(8,35) --> 35,
(8,36) --> 65,
(8,37) --> 70,
(8,38) --> 42,
(8,39) --> 25,
(8,40) --> 84,
(8,41) --> 32,
(8,42) --> 4,
(8,43) --> 65,
(8,44) --> 83,
(8,45) --> 30,
(8,46) --> 41,
(8,47) --> 84,
(8,48) --> 84,
(8,49) --> 68,
(9,0) --> 42,
(9,1) --> 58,
(9,2) --> 32,
(9,3) --> 30,
(9,4) --> 40,
(9,5) --> 64,
(9,6) --> 16,
(9,7) --> 8,
(9,8) --> 70,
(9,9) --> 0,
(9,10) --> 36,
(9,11) --> 8,
(9,12) --> 2,
(9,13) --> 30,
(9,14) --> 14,
(9,15) --> 69,
(9,16) --> 11,
(9,17) --> 78,
(9,18) --> 58,
(9,19) --> 74,
(9,20) --> 6,
(9,21) --> 63,
(9,22) --> 29,
(9,23) --> 32,
(9,24) --> 12,
(9,25) --> 7,
(9,26) --> 44,
(9,27) --> 3,
(9,28) --> 72,
(9,29) --> 74,
(9,30) --> 9,
(9,31) --> 13,
(9,32) --> 69,
(9,33) --> 1,
(9,34) --> 28,
(9,35) --> 37,
(9,36) --> 4,
(9,37) --> 3,
(9,38) --> 29,
(9,39) --> 45,
(9,40) --> 23,
(9,41) --> 38,
(9,42) --> 72,
(9,43) --> 5,
(9,44) --> 28,
(9,45) --> 40,
(9,46) --> 30,
(9,47) --> 43,
(9,48) --> 25,
(9,49) --> 4,
(10,0) --> 57,
(10,1) --> 28,
(10,2) --> 53,
(10,3) --> 9,
(10,4) --> 67,
(10,5) --> 53,
(10,6) --> 33,
(10,7) --> 42,
(10,8) --> 36,
(10,9) --> 36,
(10,10) --> 0,
(10,11) --> 30,
(10,12) --> 35,
(10,13) --> 8,
(10,14) --> 23,
(10,15) --> 45,
(10,16) --> 30,
(10,17) --> 44,
(10,18) --> 83,
(10,19) --> 63,
(10,20) --> 32,
(10,21) --> 33,
(10,22) --> 7,
(10,23) --> 4,
(10,24) --> 34,
(10,25) --> 42,
(10,26) --> 67,
(10,27) --> 35,
(10,28) --> 58,
(10,29) --> 62,
(10,30) --> 28,
(10,31) --> 27,
(10,32) --> 56,
(10,33) --> 36,
(10,34) --> 49,
(10,35) --> 1,
(10,36) --> 33,
(10,37) --> 36,
(10,38) --> 7,
(10,39) --> 12,
(10,40) --> 47,
(10,41) --> 7,
(10,42) --> 39,
(10,43) --> 33,
(10,44) --> 47,
(10,45) --> 9,
(10,46) --> 7,
(10,47) --> 65,
(10,48) --> 48,
(10,49) --> 36,
(11,0) --> 47,
(11,1) --> 50,
(11,2) --> 38,
(11,3) --> 25,
(11,4) --> 41,
(11,5) --> 57,
(11,6) --> 18,
(11,7) --> 15,
(11,8) --> 62,
(11,9) --> 8,
(11,10) --> 30,
(11,11) --> 0,
(11,12) --> 8,
(11,13) --> 25,
(11,14) --> 10,
(11,15) --> 67,
(11,16) --> 4,
(11,17) --> 70,
(11,18) --> 58,
(11,19) --> 68,
(11,20) --> 8,
(11,21) --> 55,
(11,22) --> 23,
(11,23) --> 26,
(11,24) --> 7,
(11,25) --> 12,
(11,26) --> 43,
(11,27) --> 8,
(11,28) --> 65,
(11,29) --> 67,
(11,30) --> 8,
(11,31) --> 13,
(11,32) --> 62,
(11,33) --> 7,
(11,34) --> 34,
(11,35) --> 31,
(11,36) --> 4,
(11,37) --> 9,
(11,38) --> 23,
(11,39) --> 38,
(11,40) --> 29,
(11,41) --> 31,
(11,42) --> 65,
(11,43) --> 3,
(11,44) --> 33,
(11,45) --> 33,
(11,46) --> 24,
(11,47) --> 42,
(11,48) --> 31,
(11,49) --> 6,
(12,0) --> 40,
(12,1) --> 57,
(12,2) --> 30,
(12,3) --> 28,
(12,4) --> 43,
(12,5) --> 65,
(12,6) --> 13,
(12,7) --> 8,
(12,8) --> 69,
(12,9) --> 2,
(12,10) --> 35,
(12,11) --> 8,
(12,12) --> 0,
(12,13) --> 29,
(12,14) --> 12,
(12,15) --> 67,
(12,16) --> 12,
(12,17) --> 77,
(12,18) --> 60,
(12,19) --> 75,
(12,20) --> 4,
(12,21) --> 62,
(12,22) --> 28,
(12,23) --> 31,
(12,24) --> 13,
(12,25) --> 9,
(12,26) --> 46,
(12,27) --> 1,
(12,28) --> 73,
(12,29) --> 75,
(12,30) --> 8,
(12,31) --> 11,
(12,32) --> 70,
(12,33) --> 2,
(12,34) --> 27,
(12,35) --> 36,
(12,36) --> 4,
(12,37) --> 1,
(12,38) --> 28,
(12,39) --> 44,
(12,40) --> 21,
(12,41) --> 37,
(12,42) --> 71,
(12,43) --> 6,
(12,44) --> 27,
(12,45) --> 39,
(12,46) --> 29,
(12,47) --> 45,
(12,48) --> 24,
(12,49) --> 6,
(13,0) --> 50,
(13,1) --> 35,
(13,2) --> 45,
(13,3) --> 1,
(13,4) --> 64,
(13,5) --> 58,
(13,6) --> 26,
(13,7) --> 35,
(13,8) --> 44,
(13,9) --> 30,
(13,10) --> 8,
(13,11) --> 25,
(13,12) --> 29,
(13,13) --> 0,
(13,14) --> 16,
(13,15) --> 45,
(13,16) --> 26,
(13,17) --> 52,
(13,18) --> 80,
(13,19) --> 68,
(13,20) --> 25,
(13,21) --> 40,
(13,22) --> 4,
(13,23) --> 5,
(13,24) --> 30,
(13,25) --> 37,
(13,26) --> 65,
(13,27) --> 29,
(13,28) --> 63,
(13,29) --> 67,
(13,30) --> 21,
(13,31) --> 20,
(13,32) --> 61,
(13,33) --> 29,
(13,34) --> 41,
(13,35) --> 9,
(13,36) --> 27,
(13,37) --> 30,
(13,38) --> 4,
(13,39) --> 19,
(13,40) --> 40,
(13,41) --> 13,
(13,42) --> 47,
(13,43) --> 28,
(13,44) --> 39,
(13,45) --> 16,
(13,46) --> 6,
(13,47) --> 63,
(13,48) --> 40,
(13,49) --> 31,
(14,0) --> 42,
(14,1) --> 47,
(14,2) --> 35,
(14,3) --> 16,
(14,4) --> 51,
(14,5) --> 60,
(14,6) --> 13,
(14,7) --> 19,
(14,8) --> 58,
(14,9) --> 14,
(14,10) --> 23,
(14,11) --> 10,
(14,12) --> 12,
(14,13) --> 16,
(14,14) --> 0,
(14,15) --> 57,
(14,16) --> 13,
(14,17) --> 66,
(14,18) --> 68,
(14,19) --> 71,
(14,20) --> 9,
(14,21) --> 52,
(14,22) --> 16,
(14,23) --> 19,
(14,24) --> 17,
(14,25) --> 21,
(14,26) --> 53,
(14,27) --> 12,
(14,28) --> 67,
(14,29) --> 70,
(14,30) --> 5,
(14,31) --> 6,
(14,32) --> 65,
(14,33) --> 13,
(14,34) --> 30,
(14,35) --> 24,
(14,36) --> 11,
(14,37) --> 13,
(14,38) --> 16,
(14,39) --> 33,
(14,40) --> 27,
(14,41) --> 26,
(14,42) --> 60,
(14,43) --> 12,
(14,44) --> 29,
(14,45) --> 28,
(14,46) --> 17,
(14,47) --> 51,
(14,48) --> 28,
(14,49) --> 15,
(15,0) --> 59,
(15,1) --> 63,
(15,2) --> 63,
(15,3) --> 44,
(15,4) --> 108,
(15,5) --> 96,
(15,6) --> 56,
(15,7) --> 70,
(15,8) --> 61,
(15,9) --> 69,
(15,10) --> 45,
(15,11) --> 67,
(15,12) --> 67,
(15,13) --> 45,
(15,14) --> 57,
(15,15) --> 0,
(15,16) --> 69,
(15,17) --> 66,
(15,18) --> 125,
(15,19) --> 105,
(15,20) --> 64,
(15,21) --> 65,
(15,22) --> 48,
(15,23) --> 47,
(15,24) --> 73,
(15,25) --> 76,
(15,26) --> 109,
(15,27) --> 66,
(15,28) --> 98,
(15,29) --> 103,
(15,30) --> 60,
(15,31) --> 56,
(15,32) --> 97,
(15,33) --> 69,
(15,34) --> 61,
(15,35) --> 46,
(15,36) --> 67,
(15,37) --> 67,
(15,38) --> 48,
(15,39) --> 51,
(15,40) --> 64,
(15,41) --> 51,
(15,42) --> 65,
(15,43) --> 69,
(15,44) --> 58,
(15,45) --> 52,
(15,46) --> 50,
(15,47) --> 107,
(15,48) --> 62,
(15,49) --> 72,
(16,0) --> 51,
(16,1) --> 48,
(16,2) --> 42,
(16,3) --> 25,
(16,4) --> 39,
(16,5) --> 52,
(16,6) --> 23,
(16,7) --> 19,
(16,8) --> 60,
(16,9) --> 11,
(16,10) --> 30,
(16,11) --> 4,
(16,12) --> 12,
(16,13) --> 26,
(16,14) --> 13,
(16,15) --> 69,
(16,16) --> 0,
(16,17) --> 68,
(16,18) --> 56,
(16,19) --> 63,
(16,20) --> 12,
(16,21) --> 53,
(16,22) --> 23,
(16,23) --> 26,
(16,24) --> 4,
(16,25) --> 14,
(16,26) --> 41,
(16,27) --> 13,
(16,28) --> 61,
(16,29) --> 63,
(16,30) --> 12,
(16,31) --> 17,
(16,32) --> 58,
(16,33) --> 11,
(16,34) --> 38,
(16,35) --> 30,
(16,36) --> 8,
(16,37) --> 13,
(16,38) --> 23,
(16,39) --> 36,
(16,40) --> 33,
(16,41) --> 30,
(16,42) --> 62,
(16,43) --> 6,
(16,44) --> 38,
(16,45) --> 31,
(16,46) --> 23,
(16,47) --> 39,
(16,48) --> 35,
(16,49) --> 9,
(17,0) --> 100,
(17,1) --> 21,
(17,2) --> 97,
(17,3) --> 53,
(17,4) --> 97,
(17,5) --> 50,
(17,6) --> 77,
(17,7) --> 85,
(17,8) --> 8,
(17,9) --> 78,
(17,10) --> 44,
(17,11) --> 70,
(17,12) --> 77,
(17,13) --> 52,
(17,14) --> 66,
(17,15) --> 66,
(17,16) --> 68,
(17,17) --> 0,
(17,18) --> 107,
(17,19) --> 53,
(17,20) --> 75,
(17,21) --> 16,
(17,22) --> 51,
(17,23) --> 48,
(17,24) --> 71,
(17,25) --> 82,
(17,26) --> 93,
(17,27) --> 77,
(17,28) --> 45,
(17,29) --> 50,
(17,30) --> 71,
(17,31) --> 71,
(17,32) --> 46,
(17,33) --> 77,
(17,34) --> 93,
(17,35) --> 43,
(17,36) --> 74,
(17,37) --> 78,
(17,38) --> 51,
(17,39) --> 33,
(17,40) --> 92,
(17,41) --> 40,
(17,42) --> 6,
(17,43) --> 73,
(17,44) --> 91,
(17,45) --> 38,
(17,46) --> 49,
(17,47) --> 90,
(17,48) --> 92,
(17,49) --> 76,
(18,0) --> 96,
(18,1) --> 87,
(18,2) --> 85,
(18,3) --> 81,
(18,4) --> 18,
(18,5) --> 64,
(18,6) --> 73,
(18,7) --> 61,
(18,8) --> 101,
(18,9) --> 58,
(18,10) --> 83,
(18,11) --> 58,
(18,12) --> 60,
(18,13) --> 80,
(18,14) --> 68,
(18,15) --> 125,
(18,16) --> 56,
(18,17) --> 107,
(18,18) --> 0,
(18,19) --> 70,
(18,20) --> 63,
(18,21) --> 91,
(18,22) --> 77,
(18,23) --> 79,
(18,24) --> 52,
(18,25) --> 52,
(18,26) --> 16,
(18,27) --> 61,
(18,28) --> 74,
(18,29) --> 72,
(18,30) --> 66,
(18,31) --> 71,
(18,32) --> 71,
(18,33) --> 58,
(18,34) --> 82,
(18,35) --> 83,
(18,36) --> 59,
(18,37) --> 61,
(18,38) --> 77,
(18,39) --> 84,
(18,40) --> 76,
(18,41) --> 79,
(18,42) --> 101,
(18,43) --> 57,
(18,44) --> 84,
(18,45) --> 80,
(18,46) --> 76,
(18,47) --> 18,
(18,48) --> 79,
(18,49) --> 55,
(19,0) --> 113,
(19,1) --> 43,
(19,2) --> 105,
(19,3) --> 69,
(19,4) --> 68,
(19,5) --> 11,
(19,6) --> 84,
(19,7) --> 82,
(19,8) --> 51,
(19,9) --> 74,
(19,10) --> 63,
(19,11) --> 68,
(19,12) --> 75,
(19,13) --> 68,
(19,14) --> 71,
(19,15) --> 105,
(19,16) --> 63,
(19,17) --> 53,
(19,18) --> 70,
(19,19) --> 0,
(19,20) --> 75,
(19,21) --> 43,
(19,22) --> 64,
(19,23) --> 63,
(19,24) --> 63,
(19,25) --> 74,
(19,26) --> 60,
(19,27) --> 76,
(19,28) --> 8,
(19,29) --> 3,
(19,30) --> 73,
(19,31) --> 77,
(19,32) --> 8,
(19,33) --> 74,
(19,34) --> 101,
(19,35) --> 62,
(19,36) --> 71,
(19,37) --> 77,
(19,38) --> 64,
(19,39) --> 54,
(19,40) --> 96,
(19,41) --> 56,
(19,42) --> 49,
(19,43) --> 70,
(19,44) --> 100,
(19,45) --> 55,
(19,46) --> 62,
(19,47) --> 59,
(19,48) --> 98,
(19,49) --> 71,
(20,0) --> 39,
(20,1) --> 55,
(20,2) --> 30,
(20,3) --> 25,
(20,4) --> 46,
(20,5) --> 64,
(20,6) --> 11,
(20,7) --> 10,
(20,8) --> 66,
(20,9) --> 6,
(20,10) --> 32,
(20,11) --> 8,
(20,12) --> 4,
(20,13) --> 25,
(20,14) --> 9,
(20,15) --> 64,
(20,16) --> 12,
(20,17) --> 75,
(20,18) --> 63,
(20,19) --> 75,
(20,20) --> 0,
(20,21) --> 60,
(20,22) --> 25,
(20,23) --> 28,
(20,24) --> 14,
(20,25) --> 13,
(20,26) --> 49,
(20,27) --> 3,
(20,28) --> 72,
(20,29) --> 75,
(20,30) --> 4,
(20,31) --> 8,
(20,32) --> 69,
(20,33) --> 5,
(20,34) --> 26,
(20,35) --> 33,
(20,36) --> 5,
(20,37) --> 4,
(20,38) --> 25,
(20,39) --> 41,
(20,40) --> 21,
(20,41) --> 34,
(20,42) --> 69,
(20,43) --> 7,
(20,44) --> 26,
(20,45) --> 36,
(20,46) --> 26,
(20,47) --> 48,
(20,48) --> 23,
(20,49) --> 9,
(21,0) --> 90,
(21,1) --> 5,
(21,2) --> 85,
(21,3) --> 41,
(21,4) --> 80,
(21,5) --> 37,
(21,6) --> 64,
(21,7) --> 70,
(21,8) --> 10,
(21,9) --> 63,
(21,10) --> 33,
(21,11) --> 55,
(21,12) --> 62,
(21,13) --> 40,
(21,14) --> 52,
(21,15) --> 65,
(21,16) --> 53,
(21,17) --> 16,
(21,18) --> 91,
(21,19) --> 43,
(21,20) --> 60,
(21,21) --> 0,
(21,22) --> 38,
(21,23) --> 35,
(21,24) --> 55,
(21,25) --> 67,
(21,26) --> 76,
(21,27) --> 63,
(21,28) --> 35,
(21,29) --> 40,
(21,30) --> 57,
(21,31) --> 58,
(21,32) --> 35,
(21,33) --> 62,
(21,34) --> 81,
(21,35) --> 31,
(21,36) --> 59,
(21,37) --> 64,
(21,38) --> 38,
(21,39) --> 21,
(21,40) --> 79,
(21,41) --> 27,
(21,42) --> 10,
(21,43) --> 58,
(21,44) --> 79,
(21,45) --> 25,
(21,46) --> 36,
(21,47) --> 74,
(21,48) --> 79,
(21,49) --> 61,
(22,0) --> 52,
(22,1) --> 33,
(22,2) --> 47,
(22,3) --> 5,
(22,4) --> 62,
(22,5) --> 54,
(22,6) --> 27,
(22,7) --> 35,
(22,8) --> 42,
(22,9) --> 29,
(22,10) --> 7,
(22,11) --> 23,
(22,12) --> 28,
(22,13) --> 4,
(22,14) --> 16,
(22,15) --> 48,
(22,16) --> 23,
(22,17) --> 51,
(22,18) --> 77,
(22,19) --> 64,
(22,20) --> 25,
(22,21) --> 38,
(22,22) --> 0,
(22,23) --> 3,
(22,24) --> 27,
(22,25) --> 35,
(22,26) --> 62,
(22,27) --> 28,
(22,28) --> 59,
(22,29) --> 63,
(22,30) --> 21,
(22,31) --> 21,
(22,32) --> 57,
(22,33) --> 28,
(22,34) --> 43,
(22,35) --> 8,
(22,36) --> 26,
(22,37) --> 29,
(22,38) --> 0,
(22,39) --> 17,
(22,40) --> 41,
(22,41) --> 11,
(22,42) --> 45,
(22,43) --> 26,
(22,44) --> 41,
(22,45) --> 13,
(22,46) --> 2,
(22,47) --> 60,
(22,48) --> 42,
(22,49) --> 29,
(23,0) --> 55,
(23,1) --> 31,
(23,2) --> 50,
(23,3) --> 6,
(23,4) --> 64,
(23,5) --> 53,
(23,6) --> 30,
(23,7) --> 38,
(23,8) --> 40,
(23,9) --> 32,
(23,10) --> 4,
(23,11) --> 26,
(23,12) --> 31,
(23,13) --> 5,
(23,14) --> 19,
(23,15) --> 47,
(23,16) --> 26,
(23,17) --> 48,
(23,18) --> 79,
(23,19) --> 63,
(23,20) --> 28,
(23,21) --> 35,
(23,22) --> 3,
(23,23) --> 0,
(23,24) --> 30,
(23,25) --> 38,
(23,26) --> 64,
(23,27) --> 31,
(23,28) --> 58,
(23,29) --> 62,
(23,30) --> 24,
(23,31) --> 24,
(23,32) --> 56,
(23,33) --> 31,
(23,34) --> 46,
(23,35) --> 5,
(23,36) --> 29,
(23,37) --> 32,
(23,38) --> 3,
(23,39) --> 15,
(23,40) --> 44,
(23,41) --> 8,
(23,42) --> 43,
(23,43) --> 29,
(23,44) --> 44,
(23,45) --> 11,
(23,46) --> 3,
(23,47) --> 62,
(23,48) --> 44,
(23,49) --> 32,
(24,0) --> 53,
(24,1) --> 50,
(24,2) --> 43,
(24,3) --> 30,
(24,4) --> 35,
(24,5) --> 52,
(24,6) --> 25,
(24,7) --> 19,
(24,8) --> 63,
(24,9) --> 12,
(24,10) --> 34,
(24,11) --> 7,
(24,12) --> 13,
(24,13) --> 30,
(24,14) --> 17,
(24,15) --> 73,
(24,16) --> 4,
(24,17) --> 71,
(24,18) --> 52,
(24,19) --> 63,
(24,20) --> 14,
(24,21) --> 55,
(24,22) --> 27,
(24,23) --> 30,
(24,24) --> 0,
(24,25) --> 12,
(24,26) --> 37,
(24,27) --> 14,
(24,28) --> 61,
(24,29) --> 63,
(24,30) --> 15,
(24,31) --> 20,
(24,32) --> 58,
(24,33) --> 11,
(24,34) --> 40,
(24,35) --> 34,
(24,36) --> 9,
(24,37) --> 14,
(24,38) --> 27,
(24,39) --> 40,
(24,40) --> 34,
(24,41) --> 33,
(24,42) --> 65,
(24,43) --> 7,
(24,44) --> 40,
(24,45) --> 35,
(24,46) --> 27,
(24,47) --> 35,
(24,48) --> 37,
(24,49) --> 8,
(25,0) --> 46,
(25,1) --> 62,
(25,2) --> 36,
(25,3) --> 36,
(25,4) --> 34,
(25,5) --> 64,
(25,6) --> 22,
(25,7) --> 10,
(25,8) --> 74,
(25,9) --> 7,
(25,10) --> 42,
(25,11) --> 12,
(25,12) --> 9,
(25,13) --> 37,
(25,14) --> 21,
(25,15) --> 76,
(25,16) --> 14,
(25,17) --> 82,
(25,18) --> 52,
(25,19) --> 74,
(25,20) --> 13,
(25,21) --> 67,
(25,22) --> 35,
(25,23) --> 38,
(25,24) --> 12,
(25,25) --> 0,
(25,26) --> 38,
(25,27) --> 10,
(25,28) --> 73,
(25,29) --> 74,
(25,30) --> 16,
(25,31) --> 21,
(25,32) --> 70,
(25,33) --> 8,
(25,34) --> 32,
(25,35) --> 43,
(25,36) --> 10,
(25,37) --> 9,
(25,38) --> 35,
(25,39) --> 50,
(25,40) --> 26,
(25,41) --> 43,
(25,42) --> 76,
(25,43) --> 9,
(25,44) --> 33,
(25,45) --> 45,
(25,46) --> 36,
(25,47) --> 37,
(25,48) --> 29,
(25,49) --> 6,
(26,0) --> 84,
(26,1) --> 72,
(26,2) --> 73,
(26,3) --> 65,
(26,4) --> 8,
(26,5) --> 53,
(26,6) --> 60,
(26,7) --> 48,
(26,8) --> 86,
(26,9) --> 44,
(26,10) --> 67,
(26,11) --> 43,
(26,12) --> 46,
(26,13) --> 65,
(26,14) --> 53,
(26,15) --> 109,
(26,16) --> 41,
(26,17) --> 93,
(26,18) --> 16,
(26,19) --> 60,
(26,20) --> 49,
(26,21) --> 76,
(26,22) --> 62,
(26,23) --> 64,
(26,24) --> 37,
(26,25) --> 38,
(26,26) --> 0,
(26,27) --> 47,
(26,28) --> 63,
(26,29) --> 62,
(26,30) --> 51,
(26,31) --> 56,
(26,32) --> 60,
(26,33) --> 44,
(26,34) --> 70,
(26,35) --> 67,
(26,36) --> 44,
(26,37) --> 47,
(26,38) --> 62,
(26,39) --> 69,
(26,40) --> 64,
(26,41) --> 64,
(26,42) --> 87,
(26,43) --> 42,
(26,44) --> 71,
(26,45) --> 65,
(26,46) --> 61,
(26,47) --> 2,
(26,48) --> 67,
(26,49) --> 41,
(27,0) --> 39,
(27,1) --> 58,
(27,2) --> 30,
(27,3) --> 28,
(27,4) --> 43,
(27,5) --> 65,
(27,6) --> 12,
(27,7) --> 7,
(27,8) --> 69,
(27,9) --> 3,
(27,10) --> 35,
(27,11) --> 8,
(27,12) --> 1,
(27,13) --> 29,
(27,14) --> 12,
(27,15) --> 66,
(27,16) --> 13,
(27,17) --> 77,
(27,18) --> 61,
(27,19) --> 76,
(27,20) --> 3,
(27,21) --> 63,
(27,22) --> 28,
(27,23) --> 31,
(27,24) --> 14,
(27,25) --> 10,
(27,26) --> 47,
(27,27) --> 0,
(27,28) --> 74,
(27,29) --> 76,
(27,30) --> 7,
(27,31) --> 11,
(27,32) --> 71,
(27,33) --> 3,
(27,34) --> 26,
(27,35) --> 36,
(27,36) --> 5,
(27,37) --> 1,
(27,38) --> 28,
(27,39) --> 44,
(27,40) --> 21,
(27,41) --> 37,
(27,42) --> 72,
(27,43) --> 7,
(27,44) --> 26,
(27,45) --> 39,
(27,46) --> 29,
(27,47) --> 46,
(27,48) --> 23,
(27,49) --> 7,
(28,0) --> 109,
(28,1) --> 35,
(28,2) --> 102,
(28,3) --> 64,
(28,4) --> 70,
(28,5) --> 10,
(28,6) --> 81,
(28,7) --> 80,
(28,8) --> 43,
(28,9) --> 72,
(28,10) --> 58,
(28,11) --> 65,
(28,12) --> 73,
(28,13) --> 63,
(28,14) --> 67,
(28,15) --> 98,
(28,16) --> 61,
(28,17) --> 45,
(28,18) --> 74,
(28,19) --> 8,
(28,20) --> 72,
(28,21) --> 35,
(28,22) --> 59,
(28,23) --> 58,
(28,24) --> 61,
(28,25) --> 73,
(28,26) --> 63,
(28,27) --> 74,
(28,28) --> 0,
(28,29) --> 5,
(28,30) --> 70,
(28,31) --> 74,
(28,32) --> 3,
(28,33) --> 71,
(28,34) --> 97,
(28,35) --> 56,
(28,36) --> 69,
(28,37) --> 74,
(28,38) --> 59,
(28,39) --> 48,
(28,40) --> 94,
(28,41) --> 50,
(28,42) --> 41,
(28,43) --> 67,
(28,44) --> 96,
(28,45) --> 49,
(28,46) --> 57,
(28,47) --> 61,
(28,48) --> 95,
(28,49) --> 69,
(29,0) --> 112,
(29,1) --> 40,
(29,2) --> 104,
(29,3) --> 68,
(29,4) --> 69,
(29,5) --> 11,
(29,6) --> 83,
(29,7) --> 82,
(29,8) --> 48,
(29,9) --> 74,
(29,10) --> 62,
(29,11) --> 67,
(29,12) --> 75,
(29,13) --> 67,
(29,14) --> 70,
(29,15) --> 103,
(29,16) --> 63,
(29,17) --> 50,
(29,18) --> 72,
(29,19) --> 3,
(29,20) --> 75,
(29,21) --> 40,
(29,22) --> 63,
(29,23) --> 62,
(29,24) --> 63,
(29,25) --> 74,
(29,26) --> 62,
(29,27) --> 76,
(29,28) --> 5,
(29,29) --> 0,
(29,30) --> 73,
(29,31) --> 77,
(29,32) --> 6,
(29,33) --> 74,
(29,34) --> 100,
(29,35) --> 61,
(29,36) --> 71,
(29,37) --> 76,
(29,38) --> 63,
(29,39) --> 52,
(29,40) --> 96,
(29,41) --> 55,
(29,42) --> 47,
(29,43) --> 69,
(29,44) --> 99,
(29,45) --> 53,
(29,46) --> 61,
(29,47) --> 60,
(29,48) --> 98,
(29,49) --> 71,
(30,0) --> 40,
(30,1) --> 52,
(30,2) --> 31,
(30,3) --> 21,
(30,4) --> 48,
(30,5) --> 63,
(30,6) --> 11,
(30,7) --> 14,
(30,8) --> 63,
(30,9) --> 9,
(30,10) --> 28,
(30,11) --> 8,
(30,12) --> 8,
(30,13) --> 21,
(30,14) --> 5,
(30,15) --> 60,
(30,16) --> 12,
(30,17) --> 71,
(30,18) --> 66,
(30,19) --> 73,
(30,20) --> 4,
(30,21) --> 57,
(30,22) --> 21,
(30,23) --> 24,
(30,24) --> 15,
(30,25) --> 16,
(30,26) --> 51,
(30,27) --> 7,
(30,28) --> 70,
(30,29) --> 73,
(30,30) --> 0,
(30,31) --> 5,
(30,32) --> 68,
(30,33) --> 9,
(30,34) --> 27,
(30,35) --> 29,
(30,36) --> 7,
(30,37) --> 8,
(30,38) --> 21,
(30,39) --> 38,
(30,40) --> 23,
(30,41) --> 31,
(30,42) --> 65,
(30,43) --> 9,
(30,44) --> 26,
(30,45) --> 33,
(30,46) --> 22,
(30,47) --> 50,
(30,48) --> 25,
(30,49) --> 11,
(31,0) --> 36,
(31,1) --> 53,
(31,2) --> 28,
(31,3) --> 19,
(31,4) --> 53,
(31,5) --> 66,
(31,6) --> 7,
(31,7) --> 16,
(31,8) --> 63,
(31,9) --> 13,
(31,10) --> 27,
(31,11) --> 13,
(31,12) --> 11,
(31,13) --> 20,
(31,14) --> 6,
(31,15) --> 56,
(31,16) --> 17,
(31,17) --> 71,
(31,18) --> 71,
(31,19) --> 77,
(31,20) --> 8,
(31,21) --> 58,
(31,22) --> 21,
(31,23) --> 24,
(31,24) --> 20,
(31,25) --> 21,
(31,26) --> 56,
(31,27) --> 11,
(31,28) --> 74,
(31,29) --> 77,
(31,30) --> 5,
(31,31) --> 0,
(31,32) --> 71,
(31,33) --> 13,
(31,34) --> 24,
(31,35) --> 28,
(31,36) --> 12,
(31,37) --> 11,
(31,38) --> 21,
(31,39) --> 38,
(31,40) --> 21,
(31,41) --> 31,
(31,42) --> 66,
(31,43) --> 14,
(31,44) --> 23,
(31,45) --> 33,
(31,46) --> 22,
(31,47) --> 55,
(31,48) --> 22,
(31,49) --> 16,
(32,0) --> 107,
(32,1) --> 35,
(32,2) --> 99,
(32,3) --> 62,
(32,4) --> 67,
(32,5) --> 7,
(32,6) --> 78,
(32,7) --> 77,
(32,8) --> 43,
(32,9) --> 69,
(32,10) --> 56,
(32,11) --> 62,
(32,12) --> 70,
(32,13) --> 61,
(32,14) --> 65,
(32,15) --> 97,
(32,16) --> 58,
(32,17) --> 46,
(32,18) --> 71,
(32,19) --> 8,
(32,20) --> 69,
(32,21) --> 35,
(32,22) --> 57,
(32,23) --> 56,
(32,24) --> 58,
(32,25) --> 70,
(32,26) --> 60,
(32,27) --> 71,
(32,28) --> 3,
(32,29) --> 6,
(32,30) --> 68,
(32,31) --> 71,
(32,32) --> 0,
(32,33) --> 69,
(32,34) --> 95,
(32,35) --> 55,
(32,36) --> 66,
(32,37) --> 71,
(32,38) --> 57,
(32,39) --> 46,
(32,40) --> 91,
(32,41) --> 49,
(32,42) --> 42,
(32,43) --> 64,
(32,44) --> 94,
(32,45) --> 47,
(32,46) --> 55,
(32,47) --> 58,
(32,48) --> 92,
(32,49) --> 66,
(33,0) --> 42,
(33,1) --> 57,
(33,2) --> 32,
(33,3) --> 29,
(33,4) --> 41,
(33,5) --> 63,
(33,6) --> 15,
(33,7) --> 9,
(33,8) --> 69,
(33,9) --> 1,
(33,10) --> 36,
(33,11) --> 7,
(33,12) --> 2,
(33,13) --> 29,
(33,14) --> 13,
(33,15) --> 69,
(33,16) --> 11,
(33,17) --> 77,
(33,18) --> 58,
(33,19) --> 74,
(33,20) --> 5,
(33,21) --> 62,
(33,22) --> 28,
(33,23) --> 31,
(33,24) --> 11,
(33,25) --> 8,
(33,26) --> 44,
(33,27) --> 3,
(33,28) --> 71,
(33,29) --> 74,
(33,30) --> 9,
(33,31) --> 13,
(33,32) --> 69,
(33,33) --> 0,
(33,34) --> 28,
(33,35) --> 36,
(33,36) --> 3,
(33,37) --> 3,
(33,38) --> 28,
(33,39) --> 44,
(33,40) --> 23,
(33,41) --> 37,
(33,42) --> 71,
(33,43) --> 4,
(33,44) --> 29,
(33,45) --> 39,
(33,46) --> 29,
(33,47) --> 43,
(33,48) --> 26,
(33,49) --> 4,
(34,0) --> 14,
(34,1) --> 76,
(34,2) --> 4,
(34,3) --> 40,
(34,4) --> 64,
(34,5) --> 90,
(34,6) --> 17,
(34,7) --> 22,
(34,8) --> 85,
(34,9) --> 28,
(34,10) --> 49,
(34,11) --> 34,
(34,12) --> 27,
(34,13) --> 41,
(34,14) --> 30,
(34,15) --> 61,
(34,16) --> 38,
(34,17) --> 93,
(34,18) --> 82,
(34,19) --> 101,
(34,20) --> 26,
(34,21) --> 81,
(34,22) --> 43,
(34,23) --> 46,
(34,24) --> 40,
(34,25) --> 32,
(34,26) --> 70,
(34,27) --> 26,
(34,28) --> 97,
(34,29) --> 100,
(34,30) --> 27,
(34,31) --> 24,
(34,32) --> 95,
(34,33) --> 28,
(34,34) --> 0,
(34,35) --> 50,
(34,36) --> 30,
(34,37) --> 25,
(34,38) --> 43,
(34,39) --> 60,
(34,40) --> 6,
(34,41) --> 54,
(34,42) --> 88,
(34,43) --> 32,
(34,44) --> 3,
(34,45) --> 56,
(34,46) --> 45,
(34,47) --> 69,
(34,48) --> 3,
(34,49) --> 32,
(35,0) --> 58,
(35,1) --> 27,
(35,2) --> 54,
(35,3) --> 10,
(35,4) --> 68,
(35,5) --> 52,
(35,6) --> 34,
(35,7) --> 43,
(35,8) --> 35,
(35,9) --> 37,
(35,10) --> 1,
(35,11) --> 31,
(35,12) --> 36,
(35,13) --> 9,
(35,14) --> 24,
(35,15) --> 46,
(35,16) --> 30,
(35,17) --> 43,
(35,18) --> 83,
(35,19) --> 62,
(35,20) --> 33,
(35,21) --> 31,
(35,22) --> 8,
(35,23) --> 5,
(35,24) --> 34,
(35,25) --> 43,
(35,26) --> 67,
(35,27) --> 36,
(35,28) --> 56,
(35,29) --> 61,
(35,30) --> 29,
(35,31) --> 28,
(35,32) --> 55,
(35,33) --> 36,
(35,34) --> 50,
(35,35) --> 0,
(35,36) --> 34,
(35,37) --> 37,
(35,38) --> 8,
(35,39) --> 11,
(35,40) --> 49,
(35,41) --> 6,
(35,42) --> 38,
(35,43) --> 34,
(35,44) --> 48,
(35,45) --> 8,
(35,46) --> 7,
(35,47) --> 65,
(35,48) --> 49,
(35,49) --> 37,
(36,0) --> 44,
(36,1) --> 54,
(36,2) --> 34,
(36,3) --> 26,
(36,4) --> 41,
(36,5) --> 60,
(36,6) --> 16,
(36,7) --> 12,
(36,8) --> 65,
(36,9) --> 4,
(36,10) --> 33,
(36,11) --> 4,
(36,12) --> 4,
(36,13) --> 27,
(36,14) --> 11,
(36,15) --> 67,
(36,16) --> 8,
(36,17) --> 74,
(36,18) --> 59,
(36,19) --> 71,
(36,20) --> 5,
(36,21) --> 59,
(36,22) --> 26,
(36,23) --> 29,
(36,24) --> 9,
(36,25) --> 10,
(36,26) --> 44,
(36,27) --> 5,
(36,28) --> 69,
(36,29) --> 71,
(36,30) --> 7,
(36,31) --> 12,
(36,32) --> 66,
(36,33) --> 3,
(36,34) --> 30,
(36,35) --> 34,
(36,36) --> 0,
(36,37) --> 6,
(36,38) --> 26,
(36,39) --> 41,
(36,40) --> 26,
(36,41) --> 34,
(36,42) --> 68,
(36,43) --> 2,
(36,44) --> 30,
(36,45) --> 36,
(36,46) --> 26,
(36,47) --> 43,
(36,48) --> 28,
(36,49) --> 4,
(37,0) --> 39,
(37,1) --> 59,
(37,2) --> 29,
(37,3) --> 29,
(37,4) --> 43,
(37,5) --> 66,
(37,6) --> 13,
(37,7) --> 6,
(37,8) --> 70,
(37,9) --> 3,
(37,10) --> 36,
(37,11) --> 9,
(37,12) --> 1,
(37,13) --> 30,
(37,14) --> 13,
(37,15) --> 67,
(37,16) --> 13,
(37,17) --> 78,
(37,18) --> 61,
(37,19) --> 77,
(37,20) --> 4,
(37,21) --> 64,
(37,22) --> 29,
(37,23) --> 32,
(37,24) --> 14,
(37,25) --> 9,
(37,26) --> 47,
(37,27) --> 1,
(37,28) --> 74,
(37,29) --> 76,
(37,30) --> 8,
(37,31) --> 11,
(37,32) --> 71,
(37,33) --> 3,
(37,34) --> 25,
(37,35) --> 37,
(37,36) --> 6,
(37,37) --> 0,
(37,38) --> 29,
(37,39) --> 45,
(37,40) --> 20,
(37,41) --> 38,
(37,42) --> 73,
(37,43) --> 7,
(37,44) --> 25,
(37,45) --> 40,
(37,46) --> 30,
(37,47) --> 46,
(37,48) --> 22,
(37,49) --> 7,
(38,0) --> 52,
(38,1) --> 33,
(38,2) --> 47,
(38,3) --> 5,
(38,4) --> 62,
(38,5) --> 54,
(38,6) --> 27,
(38,7) --> 35,
(38,8) --> 42,
(38,9) --> 29,
(38,10) --> 7,
(38,11) --> 23,
(38,12) --> 28,
(38,13) --> 4,
(38,14) --> 16,
(38,15) --> 48,
(38,16) --> 23,
(38,17) --> 51,
(38,18) --> 77,
(38,19) --> 64,
(38,20) --> 25,
(38,21) --> 38,
(38,22) --> 0,
(38,23) --> 3,
(38,24) --> 27,
(38,25) --> 35,
(38,26) --> 62,
(38,27) --> 28,
(38,28) --> 59,
(38,29) --> 63,
(38,30) --> 21,
(38,31) --> 21,
(38,32) --> 57,
(38,33) --> 28,
(38,34) --> 43,
(38,35) --> 8,
(38,36) --> 26,
(38,37) --> 29,
(38,38) --> 0,
(38,39) --> 17,
(38,40) --> 41,
(38,41) --> 11,
(38,42) --> 45,
(38,43) --> 26,
(38,44) --> 41,
(38,45) --> 13,
(38,46) --> 2,
(38,47) --> 60,
(38,48) --> 42,
(38,49) --> 29,
(39,0) --> 69,
(39,1) --> 16,
(39,2) --> 64,
(39,3) --> 21,
(39,4) --> 70,
(39,5) --> 45,
(39,6) --> 44,
(39,7) --> 51,
(39,8) --> 25,
(39,9) --> 45,
(39,10) --> 12,
(39,11) --> 38,
(39,12) --> 44,
(39,13) --> 19,
(39,14) --> 33,
(39,15) --> 51,
(39,16) --> 36,
(39,17) --> 33,
(39,18) --> 84,
(39,19) --> 54,
(39,20) --> 41,
(39,21) --> 21,
(39,22) --> 17,
(39,23) --> 15,
(39,24) --> 40,
(39,25) --> 50,
(39,26) --> 69,
(39,27) --> 44,
(39,28) --> 48,
(39,29) --> 52,
(39,30) --> 38,
(39,31) --> 38,
(39,32) --> 46,
(39,33) --> 44,
(39,34) --> 60,
(39,35) --> 11,
(39,36) --> 41,
(39,37) --> 45,
(39,38) --> 17,
(39,39) --> 0,
(39,40) --> 59,
(39,41) --> 7,
(39,42) --> 28,
(39,43) --> 41,
(39,44) --> 58,
(39,45) --> 5,
(39,46) --> 16,
(39,47) --> 66,
(39,48) --> 59,
(39,49) --> 44,
(40,0) --> 20,
(40,1) --> 74,
(40,2) --> 9,
(40,3) --> 39,
(40,4) --> 58,
(40,5) --> 86,
(40,6) --> 14,
(40,7) --> 16,
(40,8) --> 84,
(40,9) --> 23,
(40,10) --> 47,
(40,11) --> 29,
(40,12) --> 21,
(40,13) --> 40,
(40,14) --> 27,
(40,15) --> 64,
(40,16) --> 33,
(40,17) --> 92,
(40,18) --> 76,
(40,19) --> 96,
(40,20) --> 21,
(40,21) --> 79,
(40,22) --> 41,
(40,23) --> 44,
(40,24) --> 34,
(40,25) --> 26,
(40,26) --> 64,
(40,27) --> 21,
(40,28) --> 94,
(40,29) --> 96,
(40,30) --> 23,
(40,31) --> 21,
(40,32) --> 91,
(40,33) --> 23,
(40,34) --> 6,
(40,35) --> 49,
(40,36) --> 26,
(40,37) --> 20,
(40,38) --> 41,
(40,39) --> 59,
(40,40) --> 0,
(40,41) --> 52,
(40,42) --> 87,
(40,43) --> 27,
(40,44) --> 8,
(40,45) --> 54,
(40,46) --> 43,
(40,47) --> 63,
(40,48) --> 3,
(40,49) --> 27,
(41,0) --> 63,
(41,1) --> 22,
(41,2) --> 58,
(41,3) --> 15,
(41,4) --> 65,
(41,5) --> 46,
(41,6) --> 38,
(41,7) --> 44,
(41,8) --> 32,
(41,9) --> 38,
(41,10) --> 7,
(41,11) --> 31,
(41,12) --> 37,
(41,13) --> 13,
(41,14) --> 26,
(41,15) --> 51,
(41,16) --> 30,
(41,17) --> 40,
(41,18) --> 79,
(41,19) --> 56,
(41,20) --> 34,
(41,21) --> 27,
(41,22) --> 11,
(41,23) --> 8,
(41,24) --> 33,
(41,25) --> 43,
(41,26) --> 64,
(41,27) --> 37,
(41,28) --> 50,
(41,29) --> 55,
(41,30) --> 31,
(41,31) --> 31,
(41,32) --> 49,
(41,33) --> 37,
(41,34) --> 54,
(41,35) --> 6,
(41,36) --> 34,
(41,37) --> 38,
(41,38) --> 11,
(41,39) --> 7,
(41,40) --> 52,
(41,41) --> 0,
(41,42) --> 35,
(41,43) --> 34,
(41,44) --> 52,
(41,45) --> 2,
(41,46) --> 9,
(41,47) --> 62,
(41,48) --> 52,
(41,49) --> 37,
(42,0) --> 96,
(42,1) --> 15,
(42,2) --> 92,
(42,3) --> 48,
(42,4) --> 91,
(42,5) --> 45,
(42,6) --> 72,
(42,7) --> 79,
(42,8) --> 4,
(42,9) --> 72,
(42,10) --> 39,
(42,11) --> 65,
(42,12) --> 71,
(42,13) --> 47,
(42,14) --> 60,
(42,15) --> 65,
(42,16) --> 62,
(42,17) --> 6,
(42,18) --> 101,
(42,19) --> 49,
(42,20) --> 69,
(42,21) --> 10,
(42,22) --> 45,
(42,23) --> 43,
(42,24) --> 65,
(42,25) --> 76,
(42,26) --> 87,
(42,27) --> 72,
(42,28) --> 41,
(42,29) --> 47,
(42,30) --> 65,
(42,31) --> 66,
(42,32) --> 42,
(42,33) --> 71,
(42,34) --> 88,
(42,35) --> 38,
(42,36) --> 68,
(42,37) --> 73,
(42,38) --> 45,
(42,39) --> 28,
(42,40) --> 87,
(42,41) --> 35,
(42,42) --> 0,
(42,43) --> 68,
(42,44) --> 86,
(42,45) --> 33,
(42,46) --> 44,
(42,47) --> 85,
(42,48) --> 87,
(42,49) --> 70,
(43,0) --> 46,
(43,1) --> 53,
(43,2) --> 36,
(43,3) --> 27,
(43,4) --> 39,
(43,5) --> 59,
(43,6) --> 18,
(43,7) --> 13,
(43,8) --> 65,
(43,9) --> 5,
(43,10) --> 33,
(43,11) --> 3,
(43,12) --> 6,
(43,13) --> 28,
(43,14) --> 12,
(43,15) --> 69,
(43,16) --> 6,
(43,17) --> 73,
(43,18) --> 57,
(43,19) --> 70,
(43,20) --> 7,
(43,21) --> 58,
(43,22) --> 26,
(43,23) --> 29,
(43,24) --> 7,
(43,25) --> 9,
(43,26) --> 42,
(43,27) --> 7,
(43,28) --> 67,
(43,29) --> 69,
(43,30) --> 9,
(43,31) --> 14,
(43,32) --> 64,
(43,33) --> 4,
(43,34) --> 32,
(43,35) --> 34,
(43,36) --> 2,
(43,37) --> 7,
(43,38) --> 26,
(43,39) --> 41,
(43,40) --> 27,
(43,41) --> 34,
(43,42) --> 68,
(43,43) --> 0,
(43,44) --> 32,
(43,45) --> 36,
(43,46) --> 27,
(43,47) --> 41,
(43,48) --> 30,
(43,49) --> 3,
(44,0) --> 14,
(44,1) --> 74,
(44,2) --> 6,
(44,3) --> 38,
(44,4) --> 66,
(44,5) --> 89,
(44,6) --> 16,
(44,7) --> 23,
(44,8) --> 83,
(44,9) --> 28,
(44,10) --> 47,
(44,11) --> 33,
(44,12) --> 27,
(44,13) --> 39,
(44,14) --> 29,
(44,15) --> 58,
(44,16) --> 38,
(44,17) --> 91,
(44,18) --> 84,
(44,19) --> 100,
(44,20) --> 26,
(44,21) --> 79,
(44,22) --> 41,
(44,23) --> 44,
(44,24) --> 40,
(44,25) --> 33,
(44,26) --> 71,
(44,27) --> 26,
(44,28) --> 96,
(44,29) --> 99,
(44,30) --> 26,
(44,31) --> 23,
(44,32) --> 94,
(44,33) --> 29,
(44,34) --> 3,
(44,35) --> 48,
(44,36) --> 30,
(44,37) --> 25,
(44,38) --> 41,
(44,39) --> 58,
(44,40) --> 8,
(44,41) --> 52,
(44,42) --> 86,
(44,43) --> 32,
(44,44) --> 0,
(44,45) --> 54,
(44,46) --> 43,
(44,47) --> 70,
(44,48) --> 5,
(44,49) --> 33,
(45,0) --> 65,
(45,1) --> 20,
(45,2) --> 60,
(45,3) --> 17,
(45,4) --> 66,
(45,5) --> 45,
(45,6) --> 40,
(45,7) --> 47,
(45,8) --> 30,
(45,9) --> 40,
(45,10) --> 9,
(45,11) --> 33,
(45,12) --> 39,
(45,13) --> 16,
(45,14) --> 28,
(45,15) --> 52,
(45,16) --> 31,
(45,17) --> 38,
(45,18) --> 80,
(45,19) --> 55,
(45,20) --> 36,
(45,21) --> 25,
(45,22) --> 13,
(45,23) --> 11,
(45,24) --> 35,
(45,25) --> 45,
(45,26) --> 65,
(45,27) --> 39,
(45,28) --> 49,
(45,29) --> 53,
(45,30) --> 33,
(45,31) --> 33,
(45,32) --> 47,
(45,33) --> 39,
(45,34) --> 56,
(45,35) --> 8,
(45,36) --> 36,
(45,37) --> 40,
(45,38) --> 13,
(45,39) --> 5,
(45,40) --> 54,
(45,41) --> 2,
(45,42) --> 33,
(45,43) --> 36,
(45,44) --> 54,
(45,45) --> 0,
(45,46) --> 11,
(45,47) --> 62,
(45,48) --> 55,
(45,49) --> 39,
(46,0) --> 54,
(46,1) --> 31,
(46,2) --> 49,
(46,3) --> 7,
(46,4) --> 61,
(46,5) --> 52,
(46,6) --> 29,
(46,7) --> 36,
(46,8) --> 41,
(46,9) --> 30,
(46,10) --> 7,
(46,11) --> 24,
(46,12) --> 29,
(46,13) --> 6,
(46,14) --> 17,
(46,15) --> 50,
(46,16) --> 23,
(46,17) --> 49,
(46,18) --> 76,
(46,19) --> 62,
(46,20) --> 26,
(46,21) --> 36,
(46,22) --> 2,
(46,23) --> 3,
(46,24) --> 27,
(46,25) --> 36,
(46,26) --> 61,
(46,27) --> 29,
(46,28) --> 57,
(46,29) --> 61,
(46,30) --> 22,
(46,31) --> 22,
(46,32) --> 55,
(46,33) --> 29,
(46,34) --> 45,
(46,35) --> 7,
(46,36) --> 26,
(46,37) --> 30,
(46,38) --> 2,
(46,39) --> 16,
(46,40) --> 43,
(46,41) --> 9,
(46,42) --> 44,
(46,43) --> 27,
(46,44) --> 43,
(46,45) --> 11,
(46,46) --> 0,
(46,47) --> 59,
(46,48) --> 43,
(46,49) --> 30,
(47,0) --> 83,
(47,1) --> 70,
(47,2) --> 72,
(47,3) --> 63,
(47,4) --> 9,
(47,5) --> 51,
(47,6) --> 58,
(47,7) --> 47,
(47,8) --> 84,
(47,9) --> 43,
(47,10) --> 65,
(47,11) --> 42,
(47,12) --> 45,
(47,13) --> 63,
(47,14) --> 51,
(47,15) --> 107,
(47,16) --> 39,
(47,17) --> 90,
(47,18) --> 18,
(47,19) --> 59,
(47,20) --> 48,
(47,21) --> 74,
(47,22) --> 60,
(47,23) --> 62,
(47,24) --> 35,
(47,25) --> 37,
(47,26) --> 2,
(47,27) --> 46,
(47,28) --> 61,
(47,29) --> 60,
(47,30) --> 50,
(47,31) --> 55,
(47,32) --> 58,
(47,33) --> 43,
(47,34) --> 69,
(47,35) --> 65,
(47,36) --> 43,
(47,37) --> 46,
(47,38) --> 60,
(47,39) --> 66,
(47,40) --> 63,
(47,41) --> 62,
(47,42) --> 85,
(47,43) --> 41,
(47,44) --> 70,
(47,45) --> 62,
(47,46) --> 59,
(47,47) --> 0,
(47,48) --> 66,
(47,49) --> 39,
(48,0) --> 17,
(48,1) --> 74,
(48,2) --> 7,
(48,3) --> 39,
(48,4) --> 62,
(48,5) --> 87,
(48,6) --> 15,
(48,7) --> 19,
(48,8) --> 84,
(48,9) --> 25,
(48,10) --> 48,
(48,11) --> 31,
(48,12) --> 24,
(48,13) --> 40,
(48,14) --> 28,
(48,15) --> 62,
(48,16) --> 35,
(48,17) --> 92,
(48,18) --> 79,
(48,19) --> 98,
(48,20) --> 23,
(48,21) --> 79,
(48,22) --> 42,
(48,23) --> 44,
(48,24) --> 37,
(48,25) --> 29,
(48,26) --> 67,
(48,27) --> 23,
(48,28) --> 95,
(48,29) --> 98,
(48,30) --> 25,
(48,31) --> 22,
(48,32) --> 92,
(48,33) --> 26,
(48,34) --> 3,
(48,35) --> 49,
(48,36) --> 28,
(48,37) --> 22,
(48,38) --> 42,
(48,39) --> 59,
(48,40) --> 3,
(48,41) --> 52,
(48,42) --> 87,
(48,43) --> 30,
(48,44) --> 5,
(48,45) --> 55,
(48,46) --> 43,
(48,47) --> 66,
(48,48) --> 0,
(48,49) --> 29,
(49,0) --> 46,
(49,1) --> 56,
(49,2) --> 36,
(49,3) --> 30,
(49,4) --> 37,
(49,5) --> 60,
(49,6) --> 19,
(49,7) --> 11,
(49,8) --> 68,
(49,9) --> 4,
(49,10) --> 36,
(49,11) --> 6,
(49,12) --> 6,
(49,13) --> 31,
(49,14) --> 15,
(49,15) --> 72,
(49,16) --> 9,
(49,17) --> 76,
(49,18) --> 55,
(49,19) --> 71,
(49,20) --> 9,
(49,21) --> 61,
(49,22) --> 29,
(49,23) --> 32,
(49,24) --> 8,
(49,25) --> 6,
(49,26) --> 41,
(49,27) --> 7,
(49,28) --> 69,
(49,29) --> 71,
(49,30) --> 11,
(49,31) --> 16,
(49,32) --> 66,
(49,33) --> 4,
(49,34) --> 32,
(49,35) --> 37,
(49,36) --> 4,
(49,37) --> 7,
(49,38) --> 29,
(49,39) --> 44,
(49,40) --> 27,
(49,41) --> 37,
(49,42) --> 70,
(49,43) --> 3,
(49,44) --> 33,
(49,45) --> 39,
(49,46) --> 30,
(49,47) --> 39,
(49,48) --> 29,
(49,49) --> 0)
letting orderWeights be function (
1 --> 14
,
2 --> 3
,
3 --> 5
,
4 --> 9
,
5 --> 69
,
6 --> 13
,
7 --> 25
,
8 --> 17
,
9 --> 12
,
10 --> 12
,
11 --> 10
,
12 --> 2
,
13 --> 23
,
14 --> 15
,
15 --> 16
,
16 --> 26
,
17 --> 12
,
18 --> 12
,
19 --> 26
,
20 --> 10
,
21 --> 22
,
22 --> 4
,
23 --> 16
,
24 --> 8
,
25 --> 23
,
26 --> 2
,
27 --> 24
,
28 --> 12
,
29 --> 24
,
30 --> 4
,
31 --> 19
,
32 --> 21
,
33 --> 7
,
34 --> 15
,
35 --> 14
,
36 --> 18
,
37 --> 7
,
38 --> 20
,
39 --> 18
,
40 --> 2
,
41 --> 21
,
42 --> 21
,
43 --> 3
,
44 --> 5
,
45 --> 20
,
46 --> 16
,
47 --> 25
,
48 --> 3
,
49 --> 10
)
letting vehicleCapacity be 100
